(set-logic QF_UF)
(declare-fun A0 () Bool)
(declare-fun A1 () Bool)
(declare-fun A2 () Bool)
(declare-fun A3 () Bool)
(declare-fun A4 () Bool)
(declare-fun A5 () Bool)
(declare-fun A6 () Bool)
(declare-fun A7 () Bool)
(declare-fun A8 () Bool)
(declare-fun A9 () Bool)
(declare-fun A10 () Bool)
(declare-fun A11 () Bool)
(declare-fun A12 () Bool)
(declare-fun A13 () Bool)
(declare-fun A14 () Bool)
(declare-fun A15 () Bool)
(declare-fun A16 () Bool)
(declare-fun A17 () Bool)
(declare-fun A18 () Bool)
(declare-fun A19 () Bool)
(declare-fun A20 () Bool)
(declare-fun A21 () Bool)
(declare-fun A22 () Bool)
(declare-fun A23 () Bool)
(declare-fun A24 () Bool)
(assert (let ((.def_0 (and A16 A22))) (let ((.def_1 (not A13))) (let ((.def_2 (not A1))) (let ((.def_3 (or .def_2 .def_1))) (let ((.def_4 (not .def_3))) (let ((.def_5 (and .def_4 .def_0))) (let ((.def_6 (not .def_5))) (let ((.def_7 (not A11))) (let ((.def_8 (and .def_7 A21))) (let ((.def_9 (not A20))) (let ((.def_10 (and .def_7 .def_9))) (let ((.def_11 (or .def_10 .def_8))) (let ((.def_12 (not .def_11))) (let ((.def_13 (and .def_12 .def_6))) (let ((.def_14 (not .def_13))) (let ((.def_15 (or A19 A6))) (let ((.def_16 (and .def_7 .def_7))) (let ((.def_17 (and .def_16 .def_15))) (let ((.def_18 (not .def_17))) (let ((.def_19 (= A13 A16))) (let ((.def_20 (or A6 A12))) (let ((.def_21 (not .def_20))) (let ((.def_22 (and .def_21 .def_19))) (let ((.def_23 (not .def_22))) (let ((.def_24 (or .def_23 .def_18))) (let ((.def_25 (and .def_24 .def_14))) (let ((.def_26 (and A16 A4))) (let ((.def_27 (not A6))) (let ((.def_28 (and A12 .def_27))) (let ((.def_29 (not .def_28))) (let ((.def_30 (and .def_29 .def_26))) (let ((.def_31 (not .def_30))) (let ((.def_32 (or A23 A8))) (let ((.def_33 (not .def_32))) (let ((.def_34 (not A23))) (let ((.def_35 (or A15 .def_34))) (let ((.def_36 (not .def_35))) (let ((.def_37 (and .def_36 .def_33))) (let ((.def_38 (not .def_37))) (let ((.def_39 (or .def_38 .def_31))) (let ((.def_40 (not .def_39))) (let ((.def_41 (not A4))) (let ((.def_42 (or .def_41 A11))) (let ((.def_43 (and .def_34 A15))) (let ((.def_44 (not .def_43))) (let ((.def_45 (or .def_44 .def_42))) (let ((.def_46 (not A12))) (let ((.def_47 (not A19))) (let ((.def_48 (or .def_47 .def_46))) (let ((.def_49 (not .def_48))) (let ((.def_50 (or .def_46 A0))) (let ((.def_51 (not .def_50))) (let ((.def_52 (and .def_51 .def_49))) (let ((.def_53 (or .def_52 .def_45))) (let ((.def_54 (not .def_53))) (let ((.def_55 (and .def_54 .def_40))) (let ((.def_56 (not .def_55))) (let ((.def_57 (and .def_56 .def_25))) (let ((.def_58 (not A14))) (let ((.def_59 (not A5))) (let ((.def_60 (= .def_59 .def_58))) (let ((.def_61 (not .def_60))) (let ((.def_62 (and .def_59 A9))) (let ((.def_63 (and .def_62 .def_61))) (let ((.def_64 (not .def_63))) (let ((.def_65 (or .def_34 .def_58))) (let ((.def_66 (not A2))) (let ((.def_67 (or .def_1 .def_66))) (let ((.def_68 (not .def_67))) (let ((.def_69 (and .def_68 .def_65))) (let ((.def_70 (and .def_69 .def_64))) (let ((.def_71 (not .def_70))) (let ((.def_72 (or A8 A12))) (let ((.def_73 (not .def_72))) (let ((.def_74 (and .def_46 .def_47))) (let ((.def_75 (not .def_74))) (let ((.def_76 (and .def_75 .def_73))) (let ((.def_77 (not .def_76))) (let ((.def_78 (not A15))) (let ((.def_79 (or .def_78 .def_7))) (let ((.def_80 (and A16 A14))) (let ((.def_81 (not .def_80))) (let ((.def_82 (or .def_81 .def_79))) (let ((.def_83 (or .def_82 .def_77))) (let ((.def_84 (and .def_83 .def_71))) (let ((.def_85 (and A7 .def_59))) (let ((.def_86 (or A1 A19))) (let ((.def_87 (not .def_86))) (let ((.def_88 (and .def_87 .def_85))) (let ((.def_89 (or A10 A4))) (let ((.def_90 (not .def_89))) (let ((.def_91 (not A22))) (let ((.def_92 (and .def_1 .def_91))) (let ((.def_93 (not .def_92))) (let ((.def_94 (or .def_93 .def_90))) (let ((.def_95 (not .def_94))) (let ((.def_96 (or .def_95 .def_88))) (let ((.def_97 (not .def_96))) (let ((.def_98 (= A6 .def_78))) (let ((.def_99 (not .def_98))) (let ((.def_100 (or A19 A10))) (let ((.def_101 (not .def_100))) (let ((.def_102 (and .def_101 .def_99))) (let ((.def_103 (not .def_102))) (let ((.def_104 (and .def_58 A4))) (let ((.def_105 (not .def_104))) (let ((.def_106 (and A14 A19))) (let ((.def_107 (= .def_106 .def_105))) (let ((.def_108 (not .def_107))) (let ((.def_109 (or .def_108 .def_103))) (let ((.def_110 (and .def_109 .def_97))) (let ((.def_111 (and .def_110 .def_84))) (let ((.def_112 (not .def_111))) (let ((.def_113 (and .def_112 .def_57))) (let ((.def_114 (and A13 .def_27))) (let ((.def_115 (not .def_114))) (let ((.def_116 (not A10))) (let ((.def_117 (not A21))) (let ((.def_118 (and .def_117 .def_116))) (let ((.def_119 (not .def_118))) (let ((.def_120 (and .def_119 .def_115))) (let ((.def_121 (not A24))) (let ((.def_122 (and .def_121 A5))) (let ((.def_123 (not .def_122))) (let ((.def_124 (not A18))) (let ((.def_125 (or .def_34 .def_124))) (let ((.def_126 (= .def_125 .def_123))) (let ((.def_127 (not .def_126))) (let ((.def_128 (or .def_127 .def_120))) (let ((.def_129 (not .def_128))) (let ((.def_130 (and A12 .def_78))) (let ((.def_131 (and A21 A5))) (let ((.def_132 (= .def_131 .def_130))) (let ((.def_133 (= A10 A0))) (let ((.def_134 (not A8))) (let ((.def_135 (= .def_46 .def_134))) (let ((.def_136 (not .def_135))) (let ((.def_137 (or .def_136 .def_133))) (let ((.def_138 (and .def_137 .def_132))) (let ((.def_139 (not .def_138))) (let ((.def_140 (or .def_139 .def_129))) (let ((.def_141 (not .def_140))) (let ((.def_142 (or A13 A22))) (let ((.def_143 (and .def_134 A13))) (let ((.def_144 (or .def_143 .def_142))) (let ((.def_145 (not .def_144))) (let ((.def_146 (and .def_34 A11))) (let ((.def_147 (not .def_146))) (let ((.def_148 (and A20 .def_34))) (let ((.def_149 (and .def_148 .def_147))) (let ((.def_150 (not .def_149))) (let ((.def_151 (and .def_150 .def_145))) (let ((.def_152 (not .def_151))) (let ((.def_153 (or .def_9 .def_117))) (let ((.def_154 (not .def_153))) (let ((.def_155 (or A11 A11))) (let ((.def_156 (or .def_155 .def_154))) (let ((.def_157 (not .def_156))) (let ((.def_158 (or A20 .def_121))) (let ((.def_159 (or A0 .def_41))) (let ((.def_160 (not .def_159))) (let ((.def_161 (or .def_160 .def_158))) (let ((.def_162 (or .def_161 .def_157))) (let ((.def_163 (not .def_162))) (let ((.def_164 (or .def_163 .def_152))) (let ((.def_165 (not .def_164))) (let ((.def_166 (or .def_165 .def_141))) (let ((.def_167 (and A15 A12))) (let ((.def_168 (not A16))) (let ((.def_169 (or .def_168 A5))) (let ((.def_170 (not .def_169))) (let ((.def_171 (or .def_170 .def_167))) (let ((.def_172 (not .def_171))) (let ((.def_173 (or .def_9 A4))) (let ((.def_174 (not .def_173))) (let ((.def_175 (or .def_46 A11))) (let ((.def_176 (not .def_175))) (let ((.def_177 (and .def_176 .def_174))) (let ((.def_178 (or .def_177 .def_172))) (let ((.def_179 (or A21 .def_41))) (let ((.def_180 (or .def_58 A19))) (let ((.def_181 (and .def_180 .def_179))) (let ((.def_182 (and A16 .def_41))) (let ((.def_183 (not A7))) (let ((.def_184 (or .def_183 .def_117))) (let ((.def_185 (not .def_184))) (let ((.def_186 (and .def_185 .def_182))) (let ((.def_187 (not .def_186))) (let ((.def_188 (or .def_187 .def_181))) (let ((.def_189 (= .def_188 .def_178))) (let ((.def_190 (not .def_189))) (let ((.def_191 (or .def_117 A17))) (let ((.def_192 (and .def_1 A3))) (let ((.def_193 (or .def_192 .def_191))) (let ((.def_194 (not .def_193))) (let ((.def_195 (and .def_116 .def_66))) (let ((.def_196 (not .def_195))) (let ((.def_197 (or A0 A13))) (let ((.def_198 (and .def_197 .def_196))) (let ((.def_199 (not .def_198))) (let ((.def_200 (or .def_199 .def_194))) (let ((.def_201 (not .def_200))) (let ((.def_202 (or .def_183 .def_59))) (let ((.def_203 (not .def_202))) (let ((.def_204 (or A22 A22))) (let ((.def_205 (not .def_204))) (let ((.def_206 (or .def_205 .def_203))) (let ((.def_207 (or A2 .def_183))) (let ((.def_208 (not .def_207))) (let ((.def_209 (not A17))) (let ((.def_210 (= .def_209 A10))) (let ((.def_211 (and .def_210 .def_208))) (let ((.def_212 (or .def_211 .def_206))) (let ((.def_213 (not .def_212))) (let ((.def_214 (or .def_213 .def_201))) (let ((.def_215 (or .def_214 .def_190))) (let ((.def_216 (or .def_215 .def_166))) (let ((.def_217 (or .def_216 .def_113))) (let ((.def_218 (not A0))) (let ((.def_219 (or .def_124 .def_218))) (let ((.def_220 (not .def_219))) (let ((.def_221 (or A5 .def_1))) (let ((.def_222 (and .def_221 .def_220))) (let ((.def_223 (or .def_58 A1))) (let ((.def_224 (not .def_223))) (let ((.def_225 (and .def_41 A20))) (let ((.def_226 (not .def_225))) (let ((.def_227 (or .def_226 .def_224))) (let ((.def_228 (not .def_227))) (let ((.def_229 (or .def_228 .def_222))) (let ((.def_230 (or A0 .def_2))) (let ((.def_231 (not .def_230))) (let ((.def_232 (= A12 A13))) (let ((.def_233 (not .def_232))) (let ((.def_234 (or .def_233 .def_231))) (let ((.def_235 (not .def_234))) (let ((.def_236 (= .def_66 .def_66))) (let ((.def_237 (or A23 A12))) (let ((.def_238 (or .def_237 .def_236))) (let ((.def_239 (not .def_238))) (let ((.def_240 (or .def_239 .def_235))) (let ((.def_241 (or .def_240 .def_229))) (let ((.def_242 (not .def_241))) (let ((.def_243 (= A7 A9))) (let ((.def_244 (not .def_243))) (let ((.def_245 (and A6 A24))) (let ((.def_246 (not .def_245))) (let ((.def_247 (and .def_246 .def_244))) (let ((.def_248 (or A1 A22))) (let ((.def_249 (or A16 A19))) (let ((.def_250 (and .def_249 .def_248))) (let ((.def_251 (not .def_250))) (let ((.def_252 (or .def_251 .def_247))) (let ((.def_253 (not .def_252))) (let ((.def_254 (and A23 .def_134))) (let ((.def_255 (not .def_254))) (let ((.def_256 (or .def_91 A9))) (let ((.def_257 (not .def_256))) (let ((.def_258 (and .def_257 .def_255))) (let ((.def_259 (not .def_258))) (let ((.def_260 (and A3 .def_121))) (let ((.def_261 (and .def_46 A2))) (let ((.def_262 (not .def_261))) (let ((.def_263 (and .def_262 .def_260))) (let ((.def_264 (not .def_263))) (let ((.def_265 (and .def_264 .def_259))) (let ((.def_266 (not .def_265))) (let ((.def_267 (or .def_266 .def_253))) (let ((.def_268 (not .def_267))) (let ((.def_269 (= .def_268 .def_242))) (let ((.def_270 (not .def_269))) (let ((.def_271 (and A20 .def_7))) (let ((.def_272 (not .def_271))) (let ((.def_273 (and A1 .def_218))) (let ((.def_274 (not .def_273))) (let ((.def_275 (and .def_274 .def_272))) (let ((.def_276 (not .def_275))) (let ((.def_277 (or A8 A4))) (let ((.def_278 (not .def_277))) (let ((.def_279 (and A6 .def_168))) (let ((.def_280 (or .def_279 .def_278))) (let ((.def_281 (or .def_280 .def_276))) (let ((.def_282 (not .def_281))) (let ((.def_283 (or .def_58 A9))) (let ((.def_284 (not .def_283))) (let ((.def_285 (or .def_66 A17))) (let ((.def_286 (not .def_285))) (let ((.def_287 (and .def_286 .def_284))) (let ((.def_288 (and A8 A23))) (let ((.def_289 (and A5 A2))) (let ((.def_290 (not .def_289))) (let ((.def_291 (or .def_290 .def_288))) (let ((.def_292 (not .def_291))) (let ((.def_293 (and .def_292 .def_287))) (let ((.def_294 (not .def_293))) (let ((.def_295 (or .def_294 .def_282))) (let ((.def_296 (not .def_295))) (let ((.def_297 (and .def_59 A13))) (let ((.def_298 (and .def_59 A8))) (let ((.def_299 (or .def_298 .def_297))) (let ((.def_300 (not .def_299))) (let ((.def_301 (and .def_91 .def_218))) (let ((.def_302 (or .def_116 A6))) (let ((.def_303 (not .def_302))) (let ((.def_304 (and .def_303 .def_301))) (let ((.def_305 (or .def_304 .def_300))) (let ((.def_306 (not .def_305))) (let ((.def_307 (or A1 .def_168))) (let ((.def_308 (not A9))) (let ((.def_309 (= .def_116 .def_308))) (let ((.def_310 (or .def_309 .def_307))) (let ((.def_311 (and .def_168 .def_2))) (let ((.def_312 (and A17 .def_121))) (let ((.def_313 (or .def_312 .def_311))) (let ((.def_314 (or .def_313 .def_310))) (let ((.def_315 (not .def_314))) (let ((.def_316 (= .def_315 .def_306))) (let ((.def_317 (not .def_316))) (let ((.def_318 (and .def_317 .def_296))) (let ((.def_319 (and .def_318 .def_270))) (let ((.def_320 (not .def_319))) (let ((.def_321 (or .def_66 .def_2))) (let ((.def_322 (not .def_321))) (let ((.def_323 (not A3))) (let ((.def_324 (and A6 .def_323))) (let ((.def_325 (and .def_324 .def_322))) (let ((.def_326 (and .def_2 A10))) (let ((.def_327 (or A17 .def_47))) (let ((.def_328 (not .def_327))) (let ((.def_329 (and .def_328 .def_326))) (let ((.def_330 (and .def_329 .def_325))) (let ((.def_331 (not .def_330))) (let ((.def_332 (and A18 A5))) (let ((.def_333 (not .def_332))) (let ((.def_334 (and A12 .def_183))) (let ((.def_335 (and .def_334 .def_333))) (let ((.def_336 (or A8 A22))) (let ((.def_337 (and A4 .def_209))) (let ((.def_338 (or .def_337 .def_336))) (let ((.def_339 (not .def_338))) (let ((.def_340 (and .def_339 .def_335))) (let ((.def_341 (and .def_340 .def_331))) (let ((.def_342 (not .def_341))) (let ((.def_343 (and A23 .def_168))) (let ((.def_344 (not .def_343))) (let ((.def_345 (or .def_7 A9))) (let ((.def_346 (not .def_345))) (let ((.def_347 (and .def_346 .def_344))) (let ((.def_348 (or .def_41 A23))) (let ((.def_349 (not .def_348))) (let ((.def_350 (or .def_308 A10))) (let ((.def_351 (or .def_350 .def_349))) (let ((.def_352 (or .def_351 .def_347))) (let ((.def_353 (not .def_352))) (let ((.def_354 (or A16 A23))) (let ((.def_355 (not .def_354))) (let ((.def_356 (and .def_66 A21))) (let ((.def_357 (not .def_356))) (let ((.def_358 (= .def_357 .def_355))) (let ((.def_359 (and .def_308 A18))) (let ((.def_360 (and .def_121 .def_308))) (let ((.def_361 (not .def_360))) (let ((.def_362 (or .def_361 .def_359))) (let ((.def_363 (not .def_362))) (let ((.def_364 (or .def_363 .def_358))) (let ((.def_365 (and .def_364 .def_353))) (let ((.def_366 (and .def_365 .def_342))) (let ((.def_367 (not .def_366))) (let ((.def_368 (or A22 .def_2))) (let ((.def_369 (not .def_368))) (let ((.def_370 (and .def_168 A21))) (let ((.def_371 (or .def_370 .def_369))) (let ((.def_372 (= A10 A3))) (let ((.def_373 (not .def_372))) (let ((.def_374 (and A10 A6))) (let ((.def_375 (or .def_374 .def_373))) (let ((.def_376 (not .def_375))) (let ((.def_377 (or .def_376 .def_371))) (let ((.def_378 (not .def_377))) (let ((.def_379 (and A5 A19))) (let ((.def_380 (not .def_379))) (let ((.def_381 (and .def_7 A24))) (let ((.def_382 (not .def_381))) (let ((.def_383 (and .def_382 .def_380))) (let ((.def_384 (or A24 .def_124))) (let ((.def_385 (or A19 A2))) (let ((.def_386 (and .def_385 .def_384))) (let ((.def_387 (= .def_386 .def_383))) (let ((.def_388 (or .def_387 .def_378))) (let ((.def_389 (and A7 A1))) (let ((.def_390 (and A21 A11))) (let ((.def_391 (not .def_390))) (let ((.def_392 (= .def_391 .def_389))) (let ((.def_393 (not .def_392))) (let ((.def_394 (or A7 .def_27))) (let ((.def_395 (or A15 A5))) (let ((.def_396 (not .def_395))) (let ((.def_397 (or .def_396 .def_394))) (let ((.def_398 (or .def_397 .def_393))) (let ((.def_399 (not .def_398))) (let ((.def_400 (or A11 .def_121))) (let ((.def_401 (or .def_134 A17))) (let ((.def_402 (and .def_401 .def_400))) (let ((.def_403 (or .def_209 .def_27))) (let ((.def_404 (not .def_403))) (let ((.def_405 (and .def_41 A1))) (let ((.def_406 (not .def_405))) (let ((.def_407 (or .def_406 .def_404))) (let ((.def_408 (and .def_407 .def_402))) (let ((.def_409 (not .def_408))) (let ((.def_410 (or .def_409 .def_399))) (let ((.def_411 (not .def_410))) (let ((.def_412 (= .def_411 .def_388))) (let ((.def_413 (not .def_412))) (let ((.def_414 (and .def_413 .def_367))) (let ((.def_415 (or .def_414 .def_320))) (let ((.def_416 (or .def_415 .def_217))) (let ((.def_417 (not .def_416))) .def_417)))))))))))))))))))))))))))))))))))))))))))))))))))))))))))))))))))))))))))))))))))))))))))))))))))))))))))))))))))))))))))))))))))))))))))))))))))))))))))))))))))))))))))))))))))))))))))))))))))))))))))))))))))))))))))))))))))))))))))))))))))))))))))))))))))))))))))))))))))))))))))))))))))))))))))))))))))))))))))))))))))))))))))))))))))))))))))))))))))))))))))))))))))))))))))))))))))))))))))))))))))))))))))))))))))
(check-sat)
